NPROCS=0
This instance is clustered!
Gurobi Optimizer version 9.0.0 build v9.0.0rc2 (linux64)
Optimize a model with 24 rows, 145 columns and 288 nonzeros
Model fingerprint: 0xe959025a
Variable types: 1 continuous, 144 integer (144 binary)
Coefficient statistics:
  Matrix range     [1e+00, 1e+00]
  Objective range  [1e+00, 1e+02]
  Bounds range     [1e+00, 1e+00]
  RHS range        [1e+00, 1e+00]
Presolve removed 2 rows and 33 columns
Presolve time: 0.00s
Presolved: 22 rows, 112 columns, 222 nonzeros
Variable types: 1 continuous, 111 integer (111 binary)

Root relaxation: objective 1.763399e+02, 20 iterations, 0.00 seconds

    Nodes    |    Current Node    |     Objective Bounds      |     Work
 Expl Unexpl |  Obj  Depth IntInf | Incumbent    BestBd   Gap | It/Node Time

     0     0  199.44322    0    8          -  199.44322      -     -    0s
H    0     0                     526.7662530  199.44322  62.1%     -    0s
H    0     0                     265.7021048  199.44322  24.9%     -    0s
H    0     0                     227.0310620  199.44322  12.2%     -    0s
H    0     0                     225.4570973  199.44322  11.5%     -    0s
     0     0  200.48364    0    8  225.45710  200.48364  11.1%     -    0s
     0     0  200.48364    0    8  225.45710  200.48364  11.1%     -    0s
     0     0  200.48364    0    8  225.45710  200.48364  11.1%     -    0s
     0     0  201.63188    0    9  225.45710  201.63188  10.6%     -    0s
     0     0  201.89924    0    6  225.45710  201.89924  10.4%     -    0s
     0     0  201.89924    0    6  225.45710  201.89924  10.4%     -    0s
     0     2  201.89924    0    6  225.45710  201.89924  10.4%     -    0s

Cutting planes:
  Gomory: 1
  MIR: 1
  Zero half: 1
  Lazy constraints: 60

Explored 178 nodes (579 simplex iterations) in 0.07 seconds
Thread count was 12 (of 12 available processors)

Solution count 4: 225.457 227.031 265.702 526.766 

Optimal solution found (tolerance 1.00e-04)
Best objective 2.254570973072e+02, best bound 2.254570973072e+02, gap 0.0000%

User-callback calls 539, time in user-callback 0.00 sec
/projects/academic/josewalt/caigao/RRARP_BD/BendersDecomp/ret/model_outs/n_10_e_8_algo_2.out
 =====>>>>> Solution is written to file in <../ret/model_outs> !!!
===>> All Done!
